JulietBench/Juliet_Based_Patch_Bench/qemu/CWE-369-Divide-By-Zero/CVE_2014_0142_8e53abbc20d08ae3ec30c2054e1161314ad9501d/solvercveSnippet.smt2
; benchmark generated from python API
(set-info :status unknown)
(declare-fun R () (_ BitVec 32))
(declare-fun rdi () (_ BitVec 64))
(declare-fun rsi () (_ BitVec 64))
(declare-fun rdx () (_ BitVec 64))
(assert
 (let (($x62374 (= (_ bv4294967274 32) R)))
 (let ((?x6 ((_ extract 31 0) rdi)))
 (let (($x49 (= (_ bv0 32) ?x6)))
 (let (($x61809 (and $x49 $x62374)))
 (let (($x24 (and (distinct (_ bv0 32) ?x6) true)))
 (let (($x122 (bvugt ?x6 (_ bv8388608 32))))
 (let (($x60244 (and $x122 $x24 $x62374)))
 (let (($x61358 (= (_ bv0 32) R)))
 (let (($x171 (bvule ?x6 (_ bv8388608 32))))
 (let ((?x12 ((_ zero_extend 32) ?x6)))
 (let ((?x18 ((_ sign_extend 64) ?x12)))
 (let ((?x16 (bvashr rsi (_ bv63 64))))
 (let ((?x17 (concat ?x16 rsi)))
 (let ((?x19 (bvsdiv ?x17 ?x18)))
 (let ((?x20 ((_ extract 63 0) ?x19)))
 (let ((?x8 ((_ extract 31 0) rdx)))
 (let ((?x9 ((_ zero_extend 32) ?x8)))
 (let (($x64 (bvsge ?x9 ?x20)))
 (let (($x62741 (and $x64 $x171 $x24 $x61358)))
 (let (($x23 (bvslt ?x9 ?x20)))
 (let (($x61996 (and $x23 $x171 $x24 $x62374)))
 (let (($x61827 (or $x61996 $x62741 $x60244 $x61809)))
 (let (($x61337 (not $x61827)))
 (let (($x61360 (and $x64 $x24 $x61358)))
 (let (($x61974 (and $x23 $x24 $x62374)))
 (let (($x60252 (or $x61974 $x61360)))
 (let (($x61336 (not $x60252)))
 (let (($x61645 (and $x61336 $x61337)))
 (let (($x62897 (and $x60252 $x61827)))
 (let (($x62434 (or $x62897 $x61645)))
 (not $x62434))))))))))))))))))))))))))))))))
(check-sat)
